33D32945 STP File, STP Format Version 1.0

SECTION Comments
Name "shell_n10_d3_s32"
Problem "Euclidean Steiner Tree Problem"
Remark "Generated with STPGenerator. 3 dimensions."
END

SECTION Graph
Nodes 10
END

SECTION Coordinates
DDD 0 -0.1909578990 0.7552531342 0.6269990303
DDD 1 0.5154859890 0.8510029793 0.1003400439
DDD 2 0.0551653372 0.8559116859 0.5141711499
DDD 3 -0.8050821820 0.2710411247 -0.5276167065
DDD 4 0.4873048821 -0.2074806324 0.8482250521
DDD 5 0.7134054826 -0.6136550735 0.3383490332
DDD 6 0.4478578653 -0.6980188336 0.5587423739
DDD 7 0.9554528355 0.1942619723 -0.2221984818
DDD 8 0.2282306507 0.7627921513 0.6050280192
DDD 9 0.8751994049 0.4562779817 0.1607370680
END
